results/res_prop_muc/res_Cimatti_mathsat_cores/QF_UF/SEQ038_size7.smt.smt2.out

real	0m0.727s
user	0m0.652s
sys	0m0.044s
