results/res_prop_muc/res_Cimatti_mathsat_cores/QF_UF/SEQ038_size7.smt.smt2.res
unsat
( _c0
  _c1000
  _c1001
  _c1002
  _c1005
  _c1006
  _c1007
  _c1008
  _c1009
  _c101
  _c1010
  _c1012
  _c1013
  _c1014
  _c1015
  _c1016
  _c1017
  _c102
  _c1020
  _c1021
  _c1022
  _c1023
  _c1026
  _c1028
  _c103
  _c1030
  _c1033
  _c1034
  _c1036
  _c1037
  _c104
  _c1040
  _c1041
  _c1042
  _c1044
  _c1045
  _c1047
  _c1048
  _c1049
  _c105
  _c1050
  _c106
  _c107
  _c109
  _c110
  _c111
  _c112
  _c113
  _c114
  _c115
  _c1150
  _c1151
  _c1152
  _c1153
  _c1154
  _c1155
  _c1156
  _c1162
  _c1163
  _c1164
  _c1165
  _c1166
  _c1167
  _c1168
  _c1169
  _c117
  _c1170
  _c1171
  _c1172
  _c1173
  _c1174
  _c1175
  _c1176
  _c1177
  _c1178
  _c1179
  _c118
  _c1180
  _c1181
  _c119
  _c120
  _c121
  _c122
  _c123
  _c125
  _c126
  _c127
  _c128
  _c129
  _c130
  _c131
  _c133
  _c134
  _c135
  _c136
  _c137
  _c138
  _c139
  _c141
  _c142
  _c143
  _c144
  _c145
  _c146
  _c147
  _c149
  _c150
  _c151
  _c152
  _c153
  _c154
  _c155
  _c156
  _c157
  _c163
  _c164
  _c172
  _c205
  _c206
  _c207
  _c208
  _c209
  _c210
  _c211
  _c212
  _c213
  _c214
  _c215
  _c216
  _c217
  _c219
  _c220
  _c221
  _c222
  _c223
  _c226
  _c227
  _c228
  _c229
  _c233
  _c234
  _c235
  _c240
  _c241
  _c247
  _c261
  _c262
  _c266
  _c267
  _c270
  _c271
  _c278
  _c284
  _c286
  _c294
  _c296
  _c297
  _c3
  _c302
  _c303
  _c304
  _c308
  _c309
  _c321
  _c323
  _c328
  _c329
  _c333
  _c334
  _c336
  _c347
  _c354
  _c355
  _c363
  _c373
  _c377
  _c378
  _c379
  _c381
  _c383
  _c386
  _c390
  _c393
  _c397
  _c398
  _c399
  _c4
  _c404
  _c412
  _c413
  _c419
  _c421
  _c431
  _c435
  _c437
  _c445
  _c452
  _c454
  _c462
  _c470
  _c477
  _c486
  _c494
  _c495
  _c5
  _c504
  _c51
  _c516
  _c519
  _c52
  _c53
  _c54
  _c548
  _c549
  _c55
  _c554
  _c557
  _c56
  _c565
  _c58
  _c59
  _c597
  _c598
  _c599
  _c6
  _c60
  _c600
  _c601
  _c602
  _c603
  _c605
  _c606
  _c609
  _c61
  _c611
  _c613
  _c615
  _c616
  _c617
  _c618
  _c62
  _c623
  _c625
  _c632
  _c634
  _c639
  _c646
  _c65
  _c66
  _c661
  _c664
  _c665
  _c666
  _c67
  _c670
  _c671
  _c672
  _c676
  _c678
  _c68
  _c680
  _c682
  _c686
  _c687
  _c689
  _c690
  _c696
  _c697
  _c699
  _c7
  _c703
  _c706
  _c707
  _c708
  _c719
  _c72
  _c727
  _c728
  _c729
  _c73
  _c732
  _c739
  _c74
  _c754
  _c755
  _c756
  _c761
  _c79
  _c798
  _c8
  _c80
  _c802
  _c804
  _c806
  _c811
  _c812
  _c813
  _c850
  _c854
  _c855
  _c858
  _c86
  _c899
  _c900
  _c907
  _c93
  _c94
  _c948
  _c949
  _c95
  _c951
  _c96
  _c966
  _c97
  _c98
  _c996
  _c997
  _c998
  _c999 )
